32 4
10 8 13 12
0 0 0 0 0 3 2 3 4
1 0 0 0 5 2 23 24
1 0 3 0 0 3 5 6 17
1 8 0 0 0 2 7 20
7 0 0 2 0 3 10 22 28
6 0 0 0 3 1 18
4 1 0 0 0 3 8 9 12
5 0 0 10 0 3 14 21 27
8 0 0 3 0 2 11 16
7 0 0 0 1 1 16
8 9 0 0 0 1 17
1 7 0 0 0 3 13 15 16
2 0 3 0 0 1 30
3 0 0 0 6 1 19
10 0 7 0 0 1 26
10 3 0 0 0 1 25
2 0 0 3 0 1 24
10 0 0 4 0 1 21
1 0 0 0 3 1 25
1 0 0 7 0 2 25 27
7 0 2 0 0 1 22
9 0 0 0 10 2 29 30
9 0 0 7 0 1 31
4 0 4 0 0 1 27
4 0 3 0 0 1 26
1 0 0 4 0 1 30
1 9 0 0 0 1 28
8 0 0 0 9 1 31
1 0 0 0 1 1 32
2 0 8 0 0 1 32
7 0 4 0 0 1 32
0 0 0 0 0 0
